NAME          DCAP_2_4_3_200_SS8
ROWS
 N  OBJ
 L  CON1
 L  CON2
 L  CON3
 L  CON4
 L  CON5
 L  CON6
 L  CON7
 L  CON8
 L  CON9
 L  CON10
 L  CON11
 L  CON12
 E  CON13
 E  CON14
 E  CON15
 E  CON16
 E  CON17
 E  CON18
 E  CON19
 E  CON20
 E  CON21
 E  CON22
 E  CON23
 E  CON24
COLUMNS
    x[1,1]    OBJ       6.180167      CON1      1.000000    
    x[1,1]    CON7      -1.000000     CON8      -1.000000   
    x[1,1]    CON9      -1.000000   
    x[1,2]    OBJ       6.563535      CON2      1.000000    
    x[1,2]    CON8      -1.000000     CON9      -1.000000   
    x[1,3]    OBJ       7.443064      CON3      1.000000    
    x[1,3]    CON9      -1.000000   
    x[2,1]    OBJ       6.732585      CON4      1.000000    
    x[2,1]    CON10     -1.000000     CON11     -1.000000   
    x[2,1]    CON12     -1.000000   
    x[2,2]    OBJ       5.039546      CON5      1.000000    
    x[2,2]    CON11     -1.000000     CON12     -1.000000   
    x[2,3]    OBJ       6.054841      CON6      1.000000    
    x[2,3]    CON12     -1.000000   
    MARKER    'MARKER'                'INTORG'
    u[1,1]    OBJ       48.076654     CON1      -1.000000   
    u[1,2]    OBJ       20.066487     CON2      -1.000000   
    u[1,3]    OBJ       32.230043     CON3      -1.000000   
    u[2,1]    OBJ       49.996186     CON4      -1.000000   
    u[2,2]    OBJ       49.466655     CON5      -1.000000   
    u[2,3]    OBJ       27.484319     CON6      -1.000000   
    y[1,1,1]  OBJ       5.713710      CON7      0.504369    
    y[1,1,1]  CON13     1.000000    
    y[1,1,2]  OBJ       5.574722      CON8      1.318552    
    y[1,1,2]  CON14     1.000000    
    y[1,1,3]  OBJ       5.559023      CON9      0.535325    
    y[1,1,3]  CON15     1.000000    
    y[1,2,1]  OBJ       8.070911      CON7      0.586061    
    y[1,2,1]  CON16     1.000000    
    y[1,2,2]  OBJ       9.095237      CON8      1.465665    
    y[1,2,2]  CON17     1.000000    
    y[1,2,3]  OBJ       8.068946      CON9      1.469856    
    y[1,2,3]  CON18     1.000000    
    y[1,3,1]  OBJ       5.757607      CON7      0.965104    
    y[1,3,1]  CON19     1.000000    
    y[1,3,2]  OBJ       6.620397      CON8      0.964316    
    y[1,3,2]  CON20     1.000000    
    y[1,3,3]  OBJ       7.417127      CON9      1.249643    
    y[1,3,3]  CON21     1.000000    
    y[1,4,1]  OBJ       6.833222      CON7      0.877670    
    y[1,4,1]  CON22     1.000000    
    y[1,4,2]  OBJ       9.231931      CON8      0.743556    
    y[1,4,2]  CON23     1.000000    
    y[1,4,3]  OBJ       6.230222      CON9      1.210939    
    y[1,4,3]  CON24     1.000000    
    y[2,1,1]  OBJ       6.617079      CON10     0.504369    
    y[2,1,1]  CON13     1.000000    
    y[2,1,2]  OBJ       5.694589      CON11     1.318552    
    y[2,1,2]  CON14     1.000000    
    y[2,1,3]  OBJ       9.359151      CON12     0.535325    
    y[2,1,3]  CON15     1.000000    
    y[2,2,1]  OBJ       6.228152      CON10     0.586061    
    y[2,2,1]  CON16     1.000000    
    y[2,2,2]  OBJ       5.818952      CON11     1.465665    
    y[2,2,2]  CON17     1.000000    
    y[2,2,3]  OBJ       5.404532      CON12     1.469856    
    y[2,2,3]  CON18     1.000000    
    y[2,3,1]  OBJ       5.137592      CON10     0.965104    
    y[2,3,1]  CON19     1.000000    
    y[2,3,2]  OBJ       8.188156      CON11     0.964316    
    y[2,3,2]  CON20     1.000000    
    y[2,3,3]  OBJ       7.045160      CON12     1.249643    
    y[2,3,3]  CON21     1.000000    
    y[2,4,1]  OBJ       6.715108      CON10     0.877670    
    y[2,4,1]  CON22     1.000000    
    y[2,4,2]  OBJ       7.663641      CON11     0.743556    
    y[2,4,2]  CON23     1.000000    
    y[2,4,3]  OBJ       7.734755      CON12     1.210939    
    y[2,4,3]  CON24     1.000000    
    z[1,1]    OBJ       953.147302    CON13     1.000000    
    z[1,2]    OBJ       641.024063    CON14     1.000000    
    z[1,3]    OBJ       921.041109    CON15     1.000000    
    z[2,1]    OBJ       502.691475    CON16     1.000000    
    z[2,2]    OBJ       509.731118    CON17     1.000000    
    z[2,3]    OBJ       611.024667    CON18     1.000000    
    z[3,1]    OBJ       860.198365    CON19     1.000000    
    z[3,2]    OBJ       610.022398    CON20     1.000000    
    z[3,3]    OBJ       843.989384    CON21     1.000000    
    z[4,1]    OBJ       819.716370    CON22     1.000000    
    z[4,2]    OBJ       604.766522    CON23     1.000000    
    z[4,3]    OBJ       958.993204    CON24     1.000000    
    MARKER    'MARKER'                 'INTEND'
RHS
    RHS       CON1      -0.000000     CON2      -0.000000   
    RHS       CON3      -0.000000     CON4      -0.000000   
    RHS       CON5      -0.000000     CON6      -0.000000   
    RHS       CON7      -0.000000     CON8      -0.000000   
    RHS       CON9      -0.000000     CON10     -0.000000   
    RHS       CON11     -0.000000     CON12     -0.000000   
    RHS       CON13     1.000000      CON14     1.000000    
    RHS       CON15     1.000000      CON16     1.000000    
    RHS       CON17     1.000000      CON18     1.000000    
    RHS       CON19     1.000000      CON20     1.000000    
    RHS       CON21     1.000000      CON22     1.000000    
    RHS       CON23     1.000000      CON24     1.000000    
BOUNDS
 BV BOUND     u[1,1]  
 BV BOUND     u[1,2]  
 BV BOUND     u[1,3]  
 BV BOUND     u[2,1]  
 BV BOUND     u[2,2]  
 BV BOUND     u[2,3]  
 BV BOUND     y[1,1,1]
 BV BOUND     y[1,1,2]
 BV BOUND     y[1,1,3]
 BV BOUND     y[1,2,1]
 BV BOUND     y[1,2,2]
 BV BOUND     y[1,2,3]
 BV BOUND     y[1,3,1]
 BV BOUND     y[1,3,2]
 BV BOUND     y[1,3,3]
 BV BOUND     y[1,4,1]
 BV BOUND     y[1,4,2]
 BV BOUND     y[1,4,3]
 BV BOUND     y[2,1,1]
 BV BOUND     y[2,1,2]
 BV BOUND     y[2,1,3]
 BV BOUND     y[2,2,1]
 BV BOUND     y[2,2,2]
 BV BOUND     y[2,2,3]
 BV BOUND     y[2,3,1]
 BV BOUND     y[2,3,2]
 BV BOUND     y[2,3,3]
 BV BOUND     y[2,4,1]
 BV BOUND     y[2,4,2]
 BV BOUND     y[2,4,3]
 BV BOUND     z[1,1]  
 BV BOUND     z[1,2]  
 BV BOUND     z[1,3]  
 BV BOUND     z[2,1]  
 BV BOUND     z[2,2]  
 BV BOUND     z[2,3]  
 BV BOUND     z[3,1]  
 BV BOUND     z[3,2]  
 BV BOUND     z[3,3]  
 BV BOUND     z[4,1]  
 BV BOUND     z[4,2]  
 BV BOUND     z[4,3]  
ENDATA
